NAME : A-n37-k6
COMMENT : (Augerat et al, Min no of trucks: 1, Optimal value: 949)
TYPE : CVRP
DIMENSION : 17
EDGE_WEIGHT_TYPE : EUC_2D 
CAPACITY : 55
NODE_COORD_SECTION
1 641132 3690363  
2 638561 3689068
3 693865 3713286    
4 672624 3749007    
5 706966 3668497    
6 684293 3743196    
7 611733 3679958    
8 637290 3708598    
9 603100 3747544    
10 589845 3760211    
11 618806 3721596    
12 594151 3725854    
13 574901 3750788    
14 636517 3650531    
15 627722 3659744   
16 631389 3576466    
17 599224 3795481    
DEMAND_SECTION
2 29     
3 17    
4 33     
5 12    
6 1     
7 1    
8 1     
9 99     
10 1     
11 4     
12 1     
13 3     
14 28     
15 1     
16 1     
17 1    
DEPOT_SECTION     
1    
-1    
EOF     
